NAME : lrc106.1424735.tour
COMMENT : Cost = 0_1424735
COMMENT : Found by LKH [Keld Helsgaun] Fri Sep 15 17:42:02 2017
TYPE : TOUR
DIMENSION : 117
TOUR_SECTION
1
3
46
6
9
8
7
47
5
4
2
105
101
114
93
62
82
91
95
97
55
69
110
66
84
65
20
24
22
19
49
26
78
108
83
53
100
87
58
23
50
21
25
92
113
96
63
64
86
77
52
103
85
57
67
115
34
32
30
28
29
27
102
90
117
16
17
48
79
74
80
61
56
107
71
112
43
45
40
41
37
39
42
44
38
36
109
70
99
89
54
13
104
11
10
14
18
116
73
72
68
31
33
35
51
94
81
106
111
15
12
88
60
76
98
59
75
-1
EOF
